; benchmark generated from python API
(set-info :status unknown)
(declare-fun W_S1_V1 () Bool)
(declare-fun DISJ_W_S1_R_S1 () Bool)
(declare-fun R_E1_V6 () Bool)
(declare-fun W_S1_V6 () Bool)
(declare-fun R_E1_V4 () Bool)
(declare-fun W_S1_V4 () Bool)
(declare-fun W_S1_V3 () Bool)
(declare-fun R_S1_V6 () Bool)
(declare-fun R_S1_V4 () Bool)
(declare-fun R_S1_V5 () Bool)
(declare-fun R_S1_V2 () Bool)
(declare-fun R_S1_V3 () Bool)
(declare-fun R_S1_V1 () Bool)
(declare-fun R_E2_V1 () Bool)
(declare-fun R_E1_V2 () Bool)
(declare-fun R_E1_V5 () Bool)
(declare-fun R_E2_V6 () Bool)
(declare-fun R_E2_V4 () Bool)
(declare-fun R_E2_V5 () Bool)
(declare-fun DISJ_W_S1_R_E2 () Bool)
(declare-fun W_S1_V5 () Bool)
(declare-fun W_S1_V2 () Bool)
(declare-fun R_E1_V3 () Bool)
(declare-fun R_E1_V1 () Bool)
(declare-fun R_E2_V3 () Bool)
(declare-fun DISJ_W_S1_R_E1 () Bool)
(assert
 (let (($x2465 (not DISJ_W_S1_R_S1)))
 (let (($x3420 (not (and W_S1_V6 R_E1_V6))))
 (let (($x2265 (not (and W_S1_V4 R_E1_V4))))
 (let (($x3380 (forall ((V2_0 Int) )(forall ((V5_0 Int) )(forall ((V4_0 Int) )(forall ((V6_0 Int) )(forall ((MW_S1_V1 Bool) )(forall ((MW_S1_V3 Bool) )(forall ((MW_S1_V2 Bool) )(forall ((MW_S1_V5 Bool) )(forall ((MW_S1_V4 Bool) )(forall ((MW_S1_V6 Bool) )(forall ((S1_V1_!7478 Int) )(forall ((S1_V1_!7484 Int) )(forall ((S1_V1_!7493 Int) )(forall ((S1_V1_!7499 Int) )(forall ((S1_V1_!7506 Int) )(forall ((S1_V3_!7479 Int) )(forall ((S1_V3_!7485 Int) )(forall ((S1_V3_!7494 Int) )(forall ((S1_V3_!7500 Int) )(forall ((S1_V3_!7507 Int) )(forall ((S1_V2_!7480 Int) )(forall ((S1_V2_!7486 Int) )(forall ((S1_V2_!7495 Int) )(forall ((S1_V2_!7501 Int) )(forall ((S1_V2_!7508 Int) )(forall ((E1_!7475 Int) )(forall ((E1_!7490 Int) )(forall ((E1_!7492 Int) )(forall ((E1_!7505 Int) )(forall ((S1_V5_!7481 Int) )(forall ((S1_V5_!7487 Int) )(forall ((S1_V5_!7496 Int) )(forall ((S1_V5_!7502 Int) )(forall ((S1_V5_!7509 Int) )(forall ((E2_!7476 Int) )(forall ((E2_!7477 Int) )(forall ((E2_!7491 Int) )(forall ((S1_V4_!7482 Int) )(forall ((S1_V4_!7488 Int) )(forall ((S1_V4_!7497 Int) )(forall ((S1_V4_!7503 Int) )(forall ((S1_V4_!7510 Int) )(forall ((S1_V6_!7483 Int) )(forall ((S1_V6_!7489 Int) )(forall ((S1_V6_!7498 Int) )(forall ((S1_V6_!7504 Int) )(forall ((S1_V6_!7511 Int) )(let ((?x628 (ite MW_S1_V3 S1_V3_!7500 E2_!7491)))
 (let ((?x3715 (+ 1 ?x628)))
 (let ((?x1906 (ite MW_S1_V3 S1_V3_!7507 ?x3715)))
 (let ((?x1209 (ite MW_S1_V3 S1_V3_!7479 E2_!7477)))
 (let ((?x4223 (+ 1 ?x1209)))
 (let ((?x2548 (ite MW_S1_V3 S1_V3_!7485 ?x4223)))
 (let (($x264 (and (= (ite MW_S1_V1 S1_V1_!7484 E1_!7475) (ite MW_S1_V1 S1_V1_!7506 E1_!7505)) (= ?x2548 ?x1906) (= (ite MW_S1_V2 S1_V2_!7486 V2_0) (ite MW_S1_V2 S1_V2_!7508 V2_0)) (= (ite MW_S1_V5 S1_V5_!7487 V5_0) (ite MW_S1_V5 S1_V5_!7509 V5_0)) (= (ite MW_S1_V4 S1_V4_!7488 V4_0) (ite MW_S1_V4 S1_V4_!7510 V4_0)) (= (ite MW_S1_V6 S1_V6_!7489 V6_0) (ite MW_S1_V6 S1_V6_!7511 V6_0)))))
 (let (($x3156 (>= (ite MW_S1_V1 S1_V1_!7499 (+ 1 (ite MW_S1_V1 S1_V1_!7493 E1_!7492))) (+ (- 1) (ite MW_S1_V2 S1_V2_!7501 V2_0)))))
 (let (($x654 (and (not (<= V4_0 E2_!7476)) (not (<= V2_0 E1_!7475)) (not (<= V4_0 E2_!7477)) (not (<= (ite MW_S1_V4 S1_V4_!7482 V4_0) ?x4223)) (>= ?x2548 (+ (- 1) (ite MW_S1_V4 S1_V4_!7488 V4_0))) (>= (ite MW_S1_V1 S1_V1_!7484 E1_!7475) (+ (- 1) (ite MW_S1_V2 S1_V2_!7486 V2_0))) (not (<= V2_0 E1_!7490)) (not (<= V4_0 E2_!7491)) (not (<= V2_0 E1_!7492)) (not (<= (ite MW_S1_V2 S1_V2_!7495 V2_0) (+ 1 (ite MW_S1_V1 S1_V1_!7493 E1_!7492)))) $x3156 (not (<= (ite MW_S1_V4 S1_V4_!7503 V4_0) ?x3715)) (not (<= (ite MW_S1_V2 S1_V2_!7501 V2_0) E1_!7505)) (>= (ite MW_S1_V1 S1_V1_!7506 E1_!7505) (+ (- 1) (ite MW_S1_V2 S1_V2_!7508 V2_0))) (>= ?x1906 (+ (- 1) (ite MW_S1_V4 S1_V4_!7510 V4_0))))))
 (let (($x5744 (= S1_V6_!7511 S1_V6_!7504)))
 (let (($x3976 (and (or (not R_S1_V1) (= E1_!7505 (+ 1 (ite MW_S1_V1 S1_V1_!7493 E1_!7492)))) (or (not R_S1_V3) (= ?x628 (+ (- 1) (ite MW_S1_V3 S1_V3_!7494 E2_!7491)))) (or (not R_S1_V2) (= (ite MW_S1_V2 S1_V2_!7501 V2_0) (ite MW_S1_V2 S1_V2_!7495 V2_0))) (or (not R_S1_V5) (= (ite MW_S1_V5 S1_V5_!7502 V5_0) (ite MW_S1_V5 S1_V5_!7496 V5_0))) (or (not R_S1_V4) (= (ite MW_S1_V4 S1_V4_!7503 V4_0) (ite MW_S1_V4 S1_V4_!7497 V4_0))) (or (not R_S1_V6) (= (ite MW_S1_V6 S1_V6_!7504 V6_0) (ite MW_S1_V6 S1_V6_!7498 V6_0))))))
 (let (($x2527 (not $x3976)))
 (let (($x3426 (= S1_V6_!7511 S1_V6_!7489)))
 (let (($x5979 (and (or (not R_S1_V1) (= E1_!7505 (ite MW_S1_V1 S1_V1_!7478 E1_!7475))) (or (not R_S1_V3) (= ?x628 ?x1209)) (or (not R_S1_V2) (= (ite MW_S1_V2 S1_V2_!7501 V2_0) (ite MW_S1_V2 S1_V2_!7480 V2_0))) (or (not R_S1_V5) (= (ite MW_S1_V5 S1_V5_!7502 V5_0) (ite MW_S1_V5 S1_V5_!7481 V5_0))) (or (not R_S1_V4) (= (ite MW_S1_V4 S1_V4_!7503 V4_0) (ite MW_S1_V4 S1_V4_!7482 V4_0))) (or (not R_S1_V6) (= (ite MW_S1_V6 S1_V6_!7504 V6_0) (ite MW_S1_V6 S1_V6_!7483 V6_0))))))
 (let (($x5244 (not $x5979)))
 (let (($x5239 (not R_S1_V6)))
 (let (($x1750 (or $x5239 (= (ite MW_S1_V6 S1_V6_!7504 V6_0) V6_0))))
 (let (($x2681 (not R_S1_V4)))
 (let (($x4952 (or $x2681 (= (ite MW_S1_V4 S1_V4_!7503 V4_0) V4_0))))
 (let (($x6050 (not R_S1_V5)))
 (let (($x2610 (or $x6050 (= (ite MW_S1_V5 S1_V5_!7502 V5_0) V5_0))))
 (let (($x3163 (not R_S1_V2)))
 (let (($x5938 (or $x3163 (= (ite MW_S1_V2 S1_V2_!7501 V2_0) V2_0))))
 (let (($x4628 (and (or (not R_S1_V1) (= E1_!7505 E1_!7475)) (or (not R_S1_V3) (= ?x628 (+ (- 1) E2_!7477))) $x5938 $x2610 $x4952 $x1750)))
 (let (($x486 (not $x4628)))
 (let (($x3575 (= S1_V6_!7504 S1_V6_!7489)))
 (let (($x3955 (not R_S1_V1)))
 (let (($x18 (or $x3955 (= (ite MW_S1_V1 S1_V1_!7493 E1_!7492) (+ (- 1) (ite MW_S1_V1 S1_V1_!7478 E1_!7475))))))
 (let (($x3263 (and $x18 (or (not R_S1_V3) (= (ite MW_S1_V3 S1_V3_!7494 E2_!7491) ?x4223)) (or $x3163 (= (ite MW_S1_V2 S1_V2_!7495 V2_0) (ite MW_S1_V2 S1_V2_!7480 V2_0))) (or $x6050 (= (ite MW_S1_V5 S1_V5_!7496 V5_0) (ite MW_S1_V5 S1_V5_!7481 V5_0))) (or $x2681 (= (ite MW_S1_V4 S1_V4_!7497 V4_0) (ite MW_S1_V4 S1_V4_!7482 V4_0))) (or $x5239 (= (ite MW_S1_V6 S1_V6_!7498 V6_0) (ite MW_S1_V6 S1_V6_!7483 V6_0))))))
 (let (($x2327 (not $x3263)))
 (let (($x353 (or $x5239 (= (ite MW_S1_V6 S1_V6_!7498 V6_0) V6_0))))
 (let (($x3383 (or $x2681 (= (ite MW_S1_V4 S1_V4_!7497 V4_0) V4_0))))
 (let (($x4557 (or $x6050 (= (ite MW_S1_V5 S1_V5_!7496 V5_0) V5_0))))
 (let (($x3987 (or $x3163 (= (ite MW_S1_V2 S1_V2_!7495 V2_0) V2_0))))
 (let (($x5969 (and (or $x3955 (= (ite MW_S1_V1 S1_V1_!7493 E1_!7492) (+ (- 1) E1_!7475))) (or (not R_S1_V3) (= (ite MW_S1_V3 S1_V3_!7494 E2_!7491) E2_!7477)) $x3987 $x4557 $x3383 $x353)))
 (let (($x5161 (not $x5969)))
 (let ((?x3018 (ite MW_S1_V6 S1_V6_!7504 V6_0)))
 (let (($x4065 (= V6_0 ?x3018)))
 (let (($x315 (or $x5239 $x4065)))
 (let ((?x708 (ite MW_S1_V4 S1_V4_!7503 V4_0)))
 (let (($x5882 (= V4_0 ?x708)))
 (let (($x4555 (or $x2681 $x5882)))
 (let (($x164 (or $x6050 (= V5_0 (ite MW_S1_V5 S1_V5_!7502 V5_0)))))
 (let ((?x4821 (ite MW_S1_V2 S1_V2_!7501 V2_0)))
 (let (($x5875 (= V2_0 ?x4821)))
 (let (($x2915 (or $x3163 $x5875)))
 (let (($x5757 (and (or $x3955 (= E1_!7492 E1_!7505)) (or (not R_S1_V3) (= E2_!7491 ?x3715)) $x2915 $x164 $x4555 $x315)))
 (let (($x2720 (not $x5757)))
 (let (($x5316 (or $x5239 (= V6_0 (ite MW_S1_V6 S1_V6_!7498 V6_0)))))
 (let (($x1823 (or $x2681 (= V4_0 (ite MW_S1_V4 S1_V4_!7497 V4_0)))))
 (let (($x1030 (or $x6050 (= V5_0 (ite MW_S1_V5 S1_V5_!7496 V5_0)))))
 (let (($x1314 (or $x3163 (= V2_0 (ite MW_S1_V2 S1_V2_!7495 V2_0)))))
 (let (($x3924 (and (or $x3955 (= E1_!7492 (+ 1 (ite MW_S1_V1 S1_V1_!7493 E1_!7492)))) (or (not R_S1_V3) (= E2_!7491 (ite MW_S1_V3 S1_V3_!7494 E2_!7491))) $x1314 $x1030 $x1823 $x5316)))
 (let (($x5590 (not $x3924)))
 (let (($x555 (or $x5239 (= V6_0 (ite MW_S1_V6 S1_V6_!7483 V6_0)))))
 (let (($x2887 (or $x2681 (= V4_0 (ite MW_S1_V4 S1_V4_!7482 V4_0)))))
 (let (($x336 (or $x6050 (= V5_0 (ite MW_S1_V5 S1_V5_!7481 V5_0)))))
 (let (($x3566 (or $x3163 (= V2_0 (ite MW_S1_V2 S1_V2_!7480 V2_0)))))
 (let (($x2032 (and (or $x3955 (= E1_!7492 (ite MW_S1_V1 S1_V1_!7478 E1_!7475))) (or (not R_S1_V3) (= E2_!7491 ?x4223)) $x3566 $x336 $x2887 $x555)))
 (let (($x738 (not $x2032)))
 (let (($x4784 (not (and (or $x3955 (= E1_!7492 E1_!7475)) (or (not R_S1_V3) (= E2_!7491 E2_!7477))))))
 (let (($x1879 (and (or $x3955 (= E1_!7475 (ite MW_S1_V1 S1_V1_!7478 E1_!7475))) (or (not R_S1_V3) (= E2_!7477 ?x4223)) $x3566 $x336 $x2887 $x555)))
 (let (($x1354 (not $x1879)))
 (let (($x478 (= S1_V4_!7510 S1_V4_!7497)))
 (let (($x2233 (and (or $x3955 (= E1_!7505 E1_!7492)) (or (not R_S1_V3) (= ?x628 (+ (- 1) E2_!7491))) $x5938 $x2610 $x4952 $x1750)))
 (let (($x4282 (not $x2233)))
 (let (($x1728 (and (or $x3955 (= (ite MW_S1_V1 S1_V1_!7493 E1_!7492) (+ (- 1) E1_!7505))) (or (not R_S1_V3) (= (ite MW_S1_V3 S1_V3_!7494 E2_!7491) ?x3715)) (or $x3163 (= (ite MW_S1_V2 S1_V2_!7495 V2_0) ?x4821)) (or $x6050 (= (ite MW_S1_V5 S1_V5_!7496 V5_0) (ite MW_S1_V5 S1_V5_!7502 V5_0))) (or $x2681 (= (ite MW_S1_V4 S1_V4_!7497 V4_0) ?x708)) (or $x5239 (= (ite MW_S1_V6 S1_V6_!7498 V6_0) ?x3018)))))
 (let (($x1597 (not $x1728)))
 (let (($x2586 (= S1_V4_!7503 S1_V4_!7497)))
 (let (($x5808 (and (or $x3955 (= (ite MW_S1_V1 S1_V1_!7493 E1_!7492) (+ (- 1) E1_!7492))) (or (not R_S1_V3) (= (ite MW_S1_V3 S1_V3_!7494 E2_!7491) E2_!7491)) $x3987 $x4557 $x3383 $x353)))
 (let (($x817 (not $x5808)))
 (let (($x3822 (and (or $x3955 (= E1_!7475 E1_!7505)) (or (not R_S1_V3) (= E2_!7477 ?x3715)) $x2915 $x164 $x4555 $x315)))
 (let (($x781 (not (and (or $x3955 (= E1_!7475 E1_!7492)) (or (not R_S1_V3) (= E2_!7477 E2_!7491))))))
 (let (($x3111 (and (or $x3955 (= E1_!7475 (+ 1 (ite MW_S1_V1 S1_V1_!7493 E1_!7492)))) (or (not R_S1_V3) (= E2_!7477 (ite MW_S1_V3 S1_V3_!7494 E2_!7491))) $x1314 $x1030 $x1823 $x5316)))
 (let (($x1137 (= E1_!7492 E1_!7505)))
 (let (($x1619 (and (or (not R_E1_V2) $x5875) (or (not R_E1_V4) $x5882) (or (not R_E1_V6) $x4065))))
 (let (($x2063 (not $x1619)))
 (let (($x4321 (= E1_!7492 E1_!7475)))
 (let (($x5360 (= E1_!7490 E1_!7492)))
 (let (($x4610 (= E1_!7490 E1_!7475)))
 (let (($x2666 (and (or $x3955 (= (ite MW_S1_V1 S1_V1_!7478 E1_!7475) E1_!7505)) (or (not R_S1_V3) (= ?x1209 ?x628)) (or $x3163 (= (ite MW_S1_V2 S1_V2_!7480 V2_0) ?x4821)) (or $x6050 (= (ite MW_S1_V5 S1_V5_!7481 V5_0) (ite MW_S1_V5 S1_V5_!7502 V5_0))) (or $x2681 (= (ite MW_S1_V4 S1_V4_!7482 V4_0) ?x708)) (or $x5239 (= (ite MW_S1_V6 S1_V6_!7483 V6_0) ?x3018)))))
 (let (($x5847 (not $x2666)))
 (let (($x35 (and (or $x3955 (= (ite MW_S1_V1 S1_V1_!7478 E1_!7475) (+ 1 (ite MW_S1_V1 S1_V1_!7493 E1_!7492)))) (or (not R_S1_V3) (= ?x1209 (+ (- 1) (ite MW_S1_V3 S1_V3_!7494 E2_!7491)))) (or $x3163 (= (ite MW_S1_V2 S1_V2_!7480 V2_0) (ite MW_S1_V2 S1_V2_!7495 V2_0))) (or $x6050 (= (ite MW_S1_V5 S1_V5_!7481 V5_0) (ite MW_S1_V5 S1_V5_!7496 V5_0))) (or $x2681 (= (ite MW_S1_V4 S1_V4_!7482 V4_0) (ite MW_S1_V4 S1_V4_!7497 V4_0))) (or $x5239 (= (ite MW_S1_V6 S1_V6_!7483 V6_0) (ite MW_S1_V6 S1_V6_!7498 V6_0))))))
 (let (($x1403 (not $x35)))
 (let (($x4204 (or $x5239 (= (ite MW_S1_V6 S1_V6_!7483 V6_0) V6_0))))
 (let (($x1622 (or $x2681 (= (ite MW_S1_V4 S1_V4_!7482 V4_0) V4_0))))
 (let (($x4632 (or $x6050 (= (ite MW_S1_V5 S1_V5_!7481 V5_0) V5_0))))
 (let (($x3073 (or $x3163 (= (ite MW_S1_V2 S1_V2_!7480 V2_0) V2_0))))
 (let (($x750 (and (or $x3955 (= (ite MW_S1_V1 S1_V1_!7478 E1_!7475) E1_!7492)) (or (not R_S1_V3) (= ?x1209 (+ (- 1) E2_!7491))) $x3073 $x4632 $x1622 $x4204)))
 (let (($x1286 (not $x750)))
 (let (($x5996 (= S1_V2_!7486 S1_V2_!7480)))
 (let (($x2022 (and (or $x3955 (= (ite MW_S1_V1 S1_V1_!7478 E1_!7475) E1_!7475)) (or (not R_S1_V3) (= ?x1209 (+ (- 1) E2_!7477))) $x3073 $x4632 $x1622 $x4204)))
 (let (($x4873 (not $x2022)))
 (let (($x2895 (and (or $x1354 (= S1_V1_!7478 S1_V1_!7484)) (or $x781 (= S1_V1_!7478 S1_V1_!7493)) (or $x1286 (= S1_V1_!7484 S1_V1_!7493)) (or $x5161 (= S1_V1_!7499 S1_V1_!7478)) (or $x2327 (= S1_V1_!7499 S1_V1_!7484)) (or $x817 (= S1_V1_!7499 S1_V1_!7493)) (or $x1597 (= S1_V1_!7499 S1_V1_!7506)) (or $x486 (= S1_V1_!7506 S1_V1_!7478)) (or $x5244 (= S1_V1_!7506 S1_V1_!7484)) (or $x4282 (= S1_V1_!7506 S1_V1_!7493)) (or $x4873 (= S1_V3_!7485 S1_V3_!7479)) (or $x1286 (= S1_V3_!7485 S1_V3_!7494)) (or $x1403 (= S1_V3_!7485 S1_V3_!7500)) (or $x5847 (= S1_V3_!7485 S1_V3_!7507)) (or $x4784 (= S1_V3_!7494 S1_V3_!7479)) (or $x5590 (= S1_V3_!7494 S1_V3_!7500)) (or $x2720 (= S1_V3_!7494 S1_V3_!7507)) (or $x5161 (= S1_V3_!7500 S1_V3_!7479)) (or $x1597 (= S1_V3_!7500 S1_V3_!7507)) (or $x486 (= S1_V3_!7507 S1_V3_!7479)) (or $x781 (= S1_V2_!7480 S1_V2_!7495)) (or $x4873 $x5996) (or $x1286 (= S1_V2_!7486 S1_V2_!7495)) (or $x1403 (= S1_V2_!7486 S1_V2_!7501)) (or $x5847 (= S1_V2_!7486 S1_V2_!7508)) (or $x5161 (= S1_V2_!7501 S1_V2_!7480)) (or $x817 (= S1_V2_!7501 S1_V2_!7495)) (or $x486 (= S1_V2_!7508 S1_V2_!7480)) (or $x4282 (= S1_V2_!7508 S1_V2_!7495)) (or $x2527 (= S1_V2_!7508 S1_V2_!7501)) (or $x2063 (= E1_!7475 E1_!7505)) $x4610 $x5360 (or $x2063 (= E1_!7490 E1_!7505)) $x4321 (or $x2063 $x1137) (or $x1354 (= S1_V5_!7481 S1_V5_!7487)) (or $x781 (= S1_V5_!7481 S1_V5_!7496)) (or (not $x3111) (= S1_V5_!7481 S1_V5_!7502)) (or $x738 (= S1_V5_!7496 S1_V5_!7487)) (or $x5590 (= S1_V5_!7496 S1_V5_!7502)) (or $x2327 (= S1_V5_!7502 S1_V5_!7487)) (or $x486 (= S1_V5_!7509 S1_V5_!7481)) (or $x5244 (= S1_V5_!7509 S1_V5_!7487)) (or $x4282 (= S1_V5_!7509 S1_V5_!7496)) (or $x2527 (= S1_V5_!7509 S1_V5_!7502)) (= E2_!7476 E2_!7477) (or (not (or (not R_E2_V1) $x4610)) (= E2_!7491 E2_!7476)) (or (not (or (not R_E2_V1) $x4610)) (= E2_!7491 E2_!7477)) (or $x1354 (= S1_V4_!7482 S1_V4_!7488)) (or $x781 (= S1_V4_!7482 S1_V4_!7497)) (or (not $x3822) (= S1_V4_!7482 S1_V4_!7510)) (or $x738 (= S1_V4_!7497 S1_V4_!7488)) (or $x5161 (= S1_V4_!7503 S1_V4_!7482)) (or $x2327 (= S1_V4_!7503 S1_V4_!7488)) (or $x817 $x2586) (or $x1597 (= S1_V4_!7503 S1_V4_!7510)) (or $x5244 (= S1_V4_!7510 S1_V4_!7488)) (or $x4282 $x478) (or $x1354 (= S1_V6_!7483 S1_V6_!7489)) (or $x4784 (= S1_V6_!7498 S1_V6_!7483)) (or $x738 (= S1_V6_!7498 S1_V6_!7489)) (or $x5590 (= S1_V6_!7498 S1_V6_!7504)) (or $x2720 (= S1_V6_!7498 S1_V6_!7511)) (or $x5161 (= S1_V6_!7504 S1_V6_!7483)) (or $x2327 $x3575) (or $x486 (= S1_V6_!7511 S1_V6_!7483)) (or $x5244 $x3426) (or $x2527 $x5744) (or (not MW_S1_V1) W_S1_V1) (or (not MW_S1_V3) W_S1_V3) (not MW_S1_V2) (or (not MW_S1_V4) W_S1_V4) (or (not MW_S1_V6) W_S1_V6))))
 (or (not $x2895) (not $x654) $x264))))))))))))))))))))))))))))))))))))))))))))))))))))))))))))))))))))))))))))))))))))))))))))))))
 )
 )
 )
 )
 )
 )
 )
 )
 )
 )
 )
 )
 )
 )
 )
 )
 )
 )
 )
 )
 )
 )
 )
 )
 )
 )
 )
 )
 )
 )
 )
 )
 )
 )
 )
 )
 )
 )
 )
 )
 )
 )
 )
 )
 )
 )
 ))
 (let (($x4673 (not R_E1_V5)))
 (let (($x2142 (and W_S1_V6 R_S1_V6)))
 (let (($x2104 (and W_S1_V4 R_S1_V4)))
 (let (($x3995 (and W_S1_V3 R_S1_V3)))
 (let (($x2028 (and W_S1_V1 R_S1_V1)))
 (let (($x754 (= DISJ_W_S1_R_S1 (not (or $x2028 $x3995 R_S1_V5 $x2104 $x2142)))))
 (let (($x5013 (and W_S1_V6 R_E2_V6)))
 (let (($x803 (and W_S1_V4 R_E2_V4)))
 (let (($x3423 (and W_S1_V1 R_E2_V1)))
 (let (($x5279 (= DISJ_W_S1_R_E2 (not (or $x3423 R_E2_V5 $x803 $x5013)))))
 (let (($x3955 (not R_S1_V1)))
 (let (($x4951 (not W_S1_V1)))
 (let (($x5025 (or DISJ_W_S1_R_S1 $x4951 $x3955)))
 (let (($x3215 (not W_S1_V4)))
 (let (($x5775 (not R_S1_V3)))
 (let (($x5214 (and $x5775 $x3215)))
 (let (($x2936 (and (not W_S1_V3) $x3215)))
 (let (($x5907 (or DISJ_W_S1_R_S1 $x4951 $x2936 $x5214)))
 (let (($x5185 (not W_S1_V2)))
 (let (($x24 (not R_E1_V3)))
 (let (($x5776 (not R_E1_V1)))
 (let (($x4218 (not R_E2_V3)))
 (let (($x4678 (and DISJ_W_S1_R_E1 $x4218 $x5776 $x24 $x5185 $x5907 $x5025 W_S1_V5 $x5279 $x754 $x4673 $x3380 $x2265 $x3420)))
 (and $x4678 $x2465 W_S1_V1)))))))))))))))))))))))))))))
(check-sat)
